data;
set K:= K1 K2 K3 K4 K5 K6 K7 K8 K9 K10 ;

set F:= F1 F2 F3 ;

set Q:= Q1 Q2 ;

param T:= 45;
param V: 
	K1  K2  K3  K4  K5  K6  K7  K8  K9  K10 :=
Q1	1   1   1   1   1   1   0   0   0   0   
Q2	0   0   0   0   0   0   1   1   1   1   
; # if resorce k is of type q

param TF:= 
K1 6
K2 6
K3 6
K4 6
K5 6
K6 6
K7 12
K8 12
K9 12
K10 12
; # number of continuous time slots resource can fly

param TR:= 
K1 2
K2 2
K3 2
K4 2
K5 2
K6 2
K7 4
K8 4
K9 4
K10 4
; #  number of continuous time slots resource k needs to rest between flights

param P:= 
K1 36
K2 36
K3 36
K4 36
K5 36
K6 36
K7 36
K8 36
K9 36
K10 36
; #  number of continuous time slots a pilot can be present including rest times for resource k 

param N:= 
K1 4
K2 4
K3 4
K4 4
K5 4
K6 4
K7 2
K8 2
K9 2
K10 2
; # max number of flights resource k can fly in the total time period

param A: 
	K1  K2  K3  K4  K5  K6  K7  K8  K9  K10 :=
1	1   1   1   1   1   1   1   1   1   1   
2	1   1   1   1   1   1   1   1   1   1   
3	1   1   1   1   1   1   1   1   1   1   
4	1   1   1   1   1   1   1   1   1   1   
5	1   1   1   1   1   1   1   1   1   1   
6	1   1   1   1   1   1   1   1   1   1   
7	1   1   1   1   1   1   1   1   1   1   
8	1   1   1   1   1   1   1   1   1   1   
9	1   1   1   1   1   1   1   1   1   1   
10	1   1   1   1   1   1   1   1   1   1   
11	1   1   1   1   1   1   1   1   1   1   
12	1   1   1   1   1   1   1   1   1   1   
13	1   1   1   1   1   1   1   1   1   1   
14	1   1   1   1   1   1   1   1   1   1   
15	1   1   1   1   1   1   1   1   1   1   
16	1   1   1   1   1   1   1   1   1   1   
17	1   1   1   1   1   1   1   1   1   1   
18	1   1   1   1   1   1   1   1   1   1   
19	1   1   1   1   1   1   1   1   1   1   
20	1   1   1   1   1   1   1   1   1   1   
21	1   1   1   1   1   1   1   1   1   1   
22	1   1   1   1   1   1   1   1   1   1   
23	1   1   1   1   1   1   1   1   1   1   
24	1   1   1   1   1   1   1   1   1   1   
25	1   1   1   1   1   1   1   1   1   1   
26	1   1   1   1   1   1   1   1   1   1   
27	1   1   1   1   1   1   1   1   1   1   
28	1   1   1   1   1   1   1   1   1   1   
29	1   1   1   1   1   1   1   1   1   1   
30	1   1   1   1   1   1   1   1   1   1   
31	1   1   1   1   1   1   1   1   1   1   
32	1   1   1   1   1   1   1   1   1   1   
33	1   1   1   1   1   1   1   1   1   1   
34	1   1   1   1   1   1   1   1   1   1   
35	1   1   1   1   1   1   1   1   1   1   
36	1   1   1   1   1   1   1   1   1   1   
37	1   1   1   1   1   1   1   1   1   1   
38	1   1   1   1   1   1   1   1   1   1   
39	1   1   1   1   1   1   1   1   1   1   
40	1   1   1   1   1   1   1   1   1   1   
41	1   1   1   1   1   1   1   1   1   1   
42	1   1   1   1   1   1   1   1   1   1   
43	1   1   1   1   1   1   1   1   1   1   
44	1   1   1   1   1   1   1   1   1   1   
45	1   1   1   1   1   1   1   1   1   1   
; # availability of resorce k in time slot t

param B: 
	F1  F2  F3  :=
Q1	1   0   0   
Q2	0   0   0   
; # if front f requires resources of type q

param U: 
	F1  F2  F3  :=
K1	0   0   0   
K2	0   0   0   
K3	0   0   0   
K4	0   0   0   
K5	0   0   0   
K6	0   0   0   
K7	0   0   0   
K8	0   0   0   
K9	2   2   2   
K10	0   0   0   
; # transit time of resource

param C:= 
K1 900
K2 900
K3 900
K4 1500
K5 4500
K6 2100
K7 5500
K8 5500
K9 5500
K10 5500
; #  water capacity of resource k

param S:= 
F1 10
F2 8
F3 7
; # max number of resources that can fly at front f in the same time slot

param D:= 

[*,*,F1 ]:  K1    K2    K3    K4    K5    K6    K7    K8    K9    K10   :=
1           1.95  1.95  1.95  1.95  1.56  1.95  1.17  1.17  1.17  1.17  
2           1.95  1.95  1.95  1.95  1.56  1.95  1.17  1.17  1.17  1.17  
3           1.95  1.95  1.95  1.95  1.56  1.95  1.17  1.17  1.17  1.17  
4           1.95  1.95  1.95  1.95  1.56  1.95  1.17  1.17  1.17  1.17  
5           1.95  1.95  1.95  1.95  1.56  1.95  1.17  1.17  1.17  1.17  
6           1.95  1.95  1.95  1.95  1.56  1.95  1.17  1.17  1.17  1.17  
7           1.95  1.95  1.95  1.95  1.56  1.95  1.17  1.17  1.17  1.17  
8           1.95  1.95  1.95  1.95  1.56  1.95  1.17  1.17  1.17  1.17  
9           1.95  1.95  1.95  1.95  1.56  1.95  1.17  1.17  1.17  1.17  
10          1.95  1.95  1.95  1.95  1.56  1.95  1.17  1.17  1.17  1.17  
11          1.95  1.95  1.95  1.95  1.56  1.95  1.17  1.17  1.17  1.17  
12          1.95  1.95  1.95  1.95  1.56  1.95  1.17  1.17  1.17  1.17  
13          1.95  1.95  1.95  1.95  1.56  1.95  1.17  1.17  1.17  1.17  
14          1.95  1.95  1.95  1.95  1.56  1.95  1.17  1.17  1.17  1.17  
15          1.95  1.95  1.95  1.95  1.56  1.95  1.17  1.17  1.17  1.17  
16          1.95  1.95  1.95  1.95  1.56  1.95  1.17  1.17  1.17  1.17  
17          1.95  1.95  1.95  1.95  1.56  1.95  1.17  1.17  1.17  1.17  
18          1.95  1.95  1.95  1.95  1.56  1.95  1.17  1.17  1.17  1.17  
19          1.95  1.95  1.95  1.95  1.56  1.95  1.17  1.17  1.17  1.17  
20          1.95  1.95  1.95  1.95  1.56  1.95  1.17  1.17  1.17  1.17  
21          1.95  1.95  1.95  1.95  1.56  1.95  1.17  1.17  1.17  1.17  
22          1.95  1.95  1.95  1.95  1.56  1.95  1.17  1.17  1.17  1.17  
23          1.95  1.95  1.95  1.95  1.56  1.95  1.17  1.17  1.17  1.17  
24          1.95  1.95  1.95  1.95  1.56  1.95  1.17  1.17  1.17  1.17  
25          1.86  1.86  1.86  1.86  1.48  1.86  1.11  1.11  1.11  1.11  
26          1.86  1.86  1.86  1.86  1.48  1.86  1.11  1.11  1.11  1.11  
27          1.86  1.86  1.86  1.86  1.48  1.86  1.11  1.11  1.11  1.11  
28          1.86  1.86  1.86  1.86  1.48  1.86  1.11  1.11  1.11  1.11  
29          1.86  1.86  1.86  1.86  1.48  1.86  1.11  1.11  1.11  1.11  
30          1.86  1.86  1.86  1.86  1.48  1.86  1.11  1.11  1.11  1.11  
31          1.86  1.86  1.86  1.86  1.48  1.86  1.11  1.11  1.11  1.11  
32          1.86  1.86  1.86  1.86  1.48  1.86  1.11  1.11  1.11  1.11  
33          1.86  1.86  1.86  1.86  1.48  1.86  1.11  1.11  1.11  1.11  
34          1.95  1.95  1.95  1.95  1.56  1.95  1.17  1.17  1.17  1.17  
35          1.95  1.95  1.95  1.95  1.56  1.95  1.17  1.17  1.17  1.17  
36          1.95  1.95  1.95  1.95  1.56  1.95  1.17  1.17  1.17  1.17  
37          1.95  1.95  1.95  1.95  1.56  1.95  1.17  1.17  1.17  1.17  
38          1.95  1.95  1.95  1.95  1.56  1.95  1.17  1.17  1.17  1.17  
39          1.95  1.95  1.95  1.95  1.56  1.95  1.17  1.17  1.17  1.17  
40          1.95  1.95  1.95  1.95  1.56  1.95  1.17  1.17  1.17  1.17  
41          1.95  1.95  1.95  1.95  1.56  1.95  1.17  1.17  1.17  1.17  
42          1.95  1.95  1.95  1.95  1.56  1.95  1.17  1.17  1.17  1.17  
43          1.95  1.95  1.95  1.95  1.56  1.95  1.17  1.17  1.17  1.17  
44          1.95  1.95  1.95  1.95  1.56  1.95  1.17  1.17  1.17  1.17  
45          1.95  1.95  1.95  1.95  1.56  1.95  1.17  1.17  1.17  1.17  

[*,*,F2 ]:  K1    K2    K3    K4    K5    K6    K7    K8    K9    K10   :=
1           1.89  1.89  1.89  1.89  1.50  1.89  1.13  1.13  1.13  1.13  
2           1.89  1.89  1.89  1.89  1.50  1.89  1.13  1.13  1.13  1.13  
3           1.89  1.89  1.89  1.89  1.50  1.89  1.13  1.13  1.13  1.13  
4           1.89  1.89  1.89  1.89  1.50  1.89  1.13  1.13  1.13  1.13  
5           1.89  1.89  1.89  1.89  1.50  1.89  1.13  1.13  1.13  1.13  
6           1.89  1.89  1.89  1.89  1.50  1.89  1.13  1.13  1.13  1.13  
7           1.89  1.89  1.89  1.89  1.50  1.89  1.13  1.13  1.13  1.13  
8           1.89  1.89  1.89  1.89  1.50  1.89  1.13  1.13  1.13  1.13  
9           1.89  1.89  1.89  1.89  1.50  1.89  1.13  1.13  1.13  1.13  
10          1.89  1.89  1.89  1.89  1.50  1.89  1.13  1.13  1.13  1.13  
11          1.89  1.89  1.89  1.89  1.50  1.89  1.13  1.13  1.13  1.13  
12          1.89  1.89  1.89  1.89  1.50  1.89  1.13  1.13  1.13  1.13  
13          1.89  1.89  1.89  1.89  1.50  1.89  1.13  1.13  1.13  1.13  
14          1.89  1.89  1.89  1.89  1.50  1.89  1.13  1.13  1.13  1.13  
15          1.89  1.89  1.89  1.89  1.50  1.89  1.13  1.13  1.13  1.13  
16          1.89  1.89  1.89  1.89  1.50  1.89  1.13  1.13  1.13  1.13  
17          1.89  1.89  1.89  1.89  1.50  1.89  1.13  1.13  1.13  1.13  
18          1.89  1.89  1.89  1.89  1.50  1.89  1.13  1.13  1.13  1.13  
19          1.89  1.89  1.89  1.89  1.50  1.89  1.13  1.13  1.13  1.13  
20          1.89  1.89  1.89  1.89  1.50  1.89  1.13  1.13  1.13  1.13  
21          1.89  1.89  1.89  1.89  1.50  1.89  1.13  1.13  1.13  1.13  
22          1.89  1.89  1.89  1.89  1.50  1.89  1.13  1.13  1.13  1.13  
23          1.89  1.89  1.89  1.89  1.50  1.89  1.13  1.13  1.13  1.13  
24          1.89  1.89  1.89  1.89  1.50  1.89  1.13  1.13  1.13  1.13  
25          1.79  1.79  1.79  1.79  1.43  1.79  1.07  1.07  1.07  1.07  
26          1.79  1.79  1.79  1.79  1.43  1.79  1.07  1.07  1.07  1.07  
27          1.79  1.79  1.79  1.79  1.43  1.79  1.07  1.07  1.07  1.07  
28          1.79  1.79  1.79  1.79  1.43  1.79  1.07  1.07  1.07  1.07  
29          1.79  1.79  1.79  1.79  1.43  1.79  1.07  1.07  1.07  1.07  
30          1.79  1.79  1.79  1.79  1.43  1.79  1.07  1.07  1.07  1.07  
31          1.79  1.79  1.79  1.79  1.43  1.79  1.07  1.07  1.07  1.07  
32          1.79  1.79  1.79  1.79  1.43  1.79  1.07  1.07  1.07  1.07  
33          1.79  1.79  1.79  1.79  1.43  1.79  1.07  1.07  1.07  1.07  
34          1.89  1.89  1.89  1.89  1.50  1.89  1.13  1.13  1.13  1.13  
35          1.89  1.89  1.89  1.89  1.50  1.89  1.13  1.13  1.13  1.13  
36          1.89  1.89  1.89  1.89  1.50  1.89  1.13  1.13  1.13  1.13  
37          1.89  1.89  1.89  1.89  1.50  1.89  1.13  1.13  1.13  1.13  
38          1.89  1.89  1.89  1.89  1.50  1.89  1.13  1.13  1.13  1.13  
39          1.89  1.89  1.89  1.89  1.50  1.89  1.13  1.13  1.13  1.13  
40          1.89  1.89  1.89  1.89  1.50  1.89  1.13  1.13  1.13  1.13  
41          1.89  1.89  1.89  1.89  1.50  1.89  1.13  1.13  1.13  1.13  
42          1.89  1.89  1.89  1.89  1.50  1.89  1.13  1.13  1.13  1.13  
43          1.89  1.89  1.89  1.89  1.50  1.89  1.13  1.13  1.13  1.13  
44          1.89  1.89  1.89  1.89  1.50  1.89  1.13  1.13  1.13  1.13  
45          1.89  1.89  1.89  1.89  1.50  1.89  1.13  1.13  1.13  1.13  

[*,*,F3 ]:  K1    K2    K3    K4    K5    K6    K7    K8    K9    K10   :=
1           1.82  1.82  1.82  1.82  1.45  1.82  1.09  1.09  1.09  1.09  
2           1.82  1.82  1.82  1.82  1.45  1.82  1.09  1.09  1.09  1.09  
3           1.82  1.82  1.82  1.82  1.45  1.82  1.09  1.09  1.09  1.09  
4           1.82  1.82  1.82  1.82  1.45  1.82  1.09  1.09  1.09  1.09  
5           1.82  1.82  1.82  1.82  1.45  1.82  1.09  1.09  1.09  1.09  
6           1.82  1.82  1.82  1.82  1.45  1.82  1.09  1.09  1.09  1.09  
7           1.82  1.82  1.82  1.82  1.45  1.82  1.09  1.09  1.09  1.09  
8           1.82  1.82  1.82  1.82  1.45  1.82  1.09  1.09  1.09  1.09  
9           1.82  1.82  1.82  1.82  1.45  1.82  1.09  1.09  1.09  1.09  
10          1.82  1.82  1.82  1.82  1.45  1.82  1.09  1.09  1.09  1.09  
11          1.82  1.82  1.82  1.82  1.45  1.82  1.09  1.09  1.09  1.09  
12          1.82  1.82  1.82  1.82  1.45  1.82  1.09  1.09  1.09  1.09  
13          1.82  1.82  1.82  1.82  1.45  1.82  1.09  1.09  1.09  1.09  
14          1.82  1.82  1.82  1.82  1.45  1.82  1.09  1.09  1.09  1.09  
15          1.82  1.82  1.82  1.82  1.45  1.82  1.09  1.09  1.09  1.09  
16          1.82  1.82  1.82  1.82  1.45  1.82  1.09  1.09  1.09  1.09  
17          1.82  1.82  1.82  1.82  1.45  1.82  1.09  1.09  1.09  1.09  
18          1.82  1.82  1.82  1.82  1.45  1.82  1.09  1.09  1.09  1.09  
19          1.82  1.82  1.82  1.82  1.45  1.82  1.09  1.09  1.09  1.09  
20          1.82  1.82  1.82  1.82  1.45  1.82  1.09  1.09  1.09  1.09  
21          1.82  1.82  1.82  1.82  1.45  1.82  1.09  1.09  1.09  1.09  
22          1.82  1.82  1.82  1.82  1.45  1.82  1.09  1.09  1.09  1.09  
23          1.82  1.82  1.82  1.82  1.45  1.82  1.09  1.09  1.09  1.09  
24          1.82  1.82  1.82  1.82  1.45  1.82  1.09  1.09  1.09  1.09  
25          1.73  1.73  1.73  1.73  1.38  1.73  1.04  1.04  1.04  1.04  
26          1.73  1.73  1.73  1.73  1.38  1.73  1.04  1.04  1.04  1.04  
27          1.73  1.73  1.73  1.73  1.38  1.73  1.04  1.04  1.04  1.04  
28          1.73  1.73  1.73  1.73  1.38  1.73  1.04  1.04  1.04  1.04  
29          1.73  1.73  1.73  1.73  1.38  1.73  1.04  1.04  1.04  1.04  
30          1.73  1.73  1.73  1.73  1.38  1.73  1.04  1.04  1.04  1.04  
31          1.73  1.73  1.73  1.73  1.38  1.73  1.04  1.04  1.04  1.04  
32          1.73  1.73  1.73  1.73  1.38  1.73  1.04  1.04  1.04  1.04  
33          1.73  1.73  1.73  1.73  1.38  1.73  1.04  1.04  1.04  1.04  
34          1.82  1.82  1.82  1.82  1.45  1.82  1.09  1.09  1.09  1.09  
35          1.82  1.82  1.82  1.82  1.45  1.82  1.09  1.09  1.09  1.09  
36          1.82  1.82  1.82  1.82  1.45  1.82  1.09  1.09  1.09  1.09  
37          1.82  1.82  1.82  1.82  1.45  1.82  1.09  1.09  1.09  1.09  
38          1.82  1.82  1.82  1.82  1.45  1.82  1.09  1.09  1.09  1.09  
39          1.82  1.82  1.82  1.82  1.45  1.82  1.09  1.09  1.09  1.09  
40          1.82  1.82  1.82  1.82  1.45  1.82  1.09  1.09  1.09  1.09  
41          1.82  1.82  1.82  1.82  1.45  1.82  1.09  1.09  1.09  1.09  
42          1.82  1.82  1.82  1.82  1.45  1.82  1.09  1.09  1.09  1.09  
43          1.82  1.82  1.82  1.82  1.45  1.82  1.09  1.09  1.09  1.09  
44          1.82  1.82  1.82  1.82  1.45  1.82  1.09  1.09  1.09  1.09  
45          1.82  1.82  1.82  1.82  1.45  1.82  1.09  1.09  1.09  1.09  
; # downloads resource k can do at front f in time t if intermediate time slot

param E:= 

[*,*,F1 ]:  K1    K2    K3    K4    K5    K6    K7    K8    K9    K10   :=
1           0.86  0.00  0.00  0.31  0.58  0.18  0.04  0.56  0.34  0.13  
2           0.86  0.00  0.00  0.31  0.58  0.18  0.04  0.56  0.34  0.13  
3           0.86  0.00  0.00  0.31  0.58  0.18  0.04  0.56  0.34  0.13  
4           0.86  0.00  0.00  0.31  0.58  0.18  0.04  0.56  0.34  0.13  
5           0.86  0.00  0.00  0.31  0.58  0.18  0.04  0.56  0.34  0.13  
6           0.86  0.00  0.00  0.31  0.58  0.18  0.04  0.56  0.34  0.13  
7           0.86  0.00  0.00  0.31  0.58  0.18  0.04  0.56  0.34  0.13  
8           0.86  0.00  0.00  0.31  0.58  0.18  0.04  0.56  0.34  0.13  
9           0.86  0.00  0.00  0.31  0.58  0.18  0.04  0.56  0.34  0.13  
10          0.86  0.00  0.00  0.31  0.58  0.18  0.04  0.56  0.34  0.13  
11          0.86  0.00  0.00  0.31  0.58  0.18  0.04  0.56  0.34  0.13  
12          0.86  0.00  0.00  0.31  0.58  0.18  0.04  0.56  0.34  0.13  
13          0.86  0.00  0.00  0.31  0.58  0.18  0.04  0.56  0.34  0.13  
14          0.86  0.00  0.00  0.31  0.58  0.18  0.04  0.56  0.34  0.13  
15          0.86  0.00  0.00  0.31  0.58  0.18  0.04  0.56  0.34  0.13  
16          0.86  0.00  0.00  0.31  0.58  0.18  0.04  0.56  0.34  0.13  
17          0.86  0.00  0.00  0.31  0.58  0.18  0.04  0.56  0.34  0.13  
18          0.86  0.00  0.00  0.31  0.58  0.18  0.04  0.56  0.34  0.13  
19          0.86  0.00  0.00  0.31  0.58  0.18  0.04  0.56  0.34  0.13  
20          0.86  0.00  0.00  0.31  0.58  0.18  0.04  0.56  0.34  0.13  
21          0.86  0.00  0.00  0.31  0.58  0.18  0.04  0.56  0.34  0.13  
22          0.86  0.00  0.00  0.31  0.58  0.18  0.04  0.56  0.34  0.13  
23          0.86  0.00  0.00  0.31  0.58  0.18  0.04  0.56  0.34  0.13  
24          0.86  0.00  0.00  0.31  0.58  0.18  0.04  0.56  0.34  0.13  
25          0.82  0.00  0.00  0.30  0.55  0.17  0.03  0.53  0.32  0.12  
26          0.82  0.00  0.00  0.30  0.55  0.17  0.03  0.53  0.32  0.12  
27          0.82  0.00  0.00  0.30  0.55  0.17  0.03  0.53  0.32  0.12  
28          0.82  0.00  0.00  0.30  0.55  0.17  0.03  0.53  0.32  0.12  
29          0.82  0.00  0.00  0.30  0.55  0.17  0.03  0.53  0.32  0.12  
30          0.82  0.00  0.00  0.30  0.55  0.17  0.03  0.53  0.32  0.12  
31          0.82  0.00  0.00  0.30  0.55  0.17  0.03  0.53  0.32  0.12  
32          0.82  0.00  0.00  0.30  0.55  0.17  0.03  0.53  0.32  0.12  
33          0.82  0.00  0.00  0.30  0.55  0.17  0.03  0.53  0.32  0.12  
34          0.86  0.00  0.00  0.31  0.58  0.18  0.04  0.56  0.34  0.13  
35          0.86  0.00  0.00  0.31  0.58  0.18  0.04  0.56  0.34  0.13  
36          0.86  0.00  0.00  0.31  0.58  0.18  0.04  0.56  0.34  0.13  
37          0.86  0.00  0.00  0.31  0.58  0.18  0.04  0.56  0.34  0.13  
38          0.86  0.00  0.00  0.31  0.58  0.18  0.04  0.56  0.34  0.13  
39          0.86  0.00  0.00  0.31  0.58  0.18  0.04  0.56  0.34  0.13  
40          0.86  0.00  0.00  0.31  0.58  0.18  0.04  0.56  0.34  0.13  
41          0.86  0.00  0.00  0.31  0.58  0.18  0.04  0.56  0.34  0.13  
42          0.86  0.00  0.00  0.31  0.58  0.18  0.04  0.56  0.34  0.13  
43          0.86  0.00  0.00  0.31  0.58  0.18  0.04  0.56  0.34  0.13  
44          0.86  0.00  0.00  0.31  0.58  0.18  0.04  0.56  0.34  0.13  
45          0.86  0.00  0.00  0.31  0.58  0.18  0.04  0.56  0.34  0.13  

[*,*,F2 ]:  K1    K2    K3    K4    K5    K6    K7    K8    K9    K10   :=
1           0.81  0.13  0.06  0.23  0.65  0.02  0.10  0.45  0.38  0.20  
2           0.81  0.13  0.06  0.23  0.65  0.02  0.10  0.45  0.38  0.20  
3           0.81  0.13  0.06  0.23  0.65  0.02  0.10  0.45  0.38  0.20  
4           0.81  0.13  0.06  0.23  0.65  0.02  0.10  0.45  0.38  0.20  
5           0.81  0.13  0.06  0.23  0.65  0.02  0.10  0.45  0.38  0.20  
6           0.81  0.13  0.06  0.23  0.65  0.02  0.10  0.45  0.38  0.20  
7           0.81  0.13  0.06  0.23  0.65  0.02  0.10  0.45  0.38  0.20  
8           0.81  0.13  0.06  0.23  0.65  0.02  0.10  0.45  0.38  0.20  
9           0.81  0.13  0.06  0.23  0.65  0.02  0.10  0.45  0.38  0.20  
10          0.81  0.13  0.06  0.23  0.65  0.02  0.10  0.45  0.38  0.20  
11          0.81  0.13  0.06  0.23  0.65  0.02  0.10  0.45  0.38  0.20  
12          0.81  0.13  0.06  0.23  0.65  0.02  0.10  0.45  0.38  0.20  
13          0.81  0.13  0.06  0.23  0.65  0.02  0.10  0.45  0.38  0.20  
14          0.81  0.13  0.06  0.23  0.65  0.02  0.10  0.45  0.38  0.20  
15          0.81  0.13  0.06  0.23  0.65  0.02  0.10  0.45  0.38  0.20  
16          0.81  0.13  0.06  0.23  0.65  0.02  0.10  0.45  0.38  0.20  
17          0.81  0.13  0.06  0.23  0.65  0.02  0.10  0.45  0.38  0.20  
18          0.81  0.13  0.06  0.23  0.65  0.02  0.10  0.45  0.38  0.20  
19          0.81  0.13  0.06  0.23  0.65  0.02  0.10  0.45  0.38  0.20  
20          0.81  0.13  0.06  0.23  0.65  0.02  0.10  0.45  0.38  0.20  
21          0.81  0.13  0.06  0.23  0.65  0.02  0.10  0.45  0.38  0.20  
22          0.81  0.13  0.06  0.23  0.65  0.02  0.10  0.45  0.38  0.20  
23          0.81  0.13  0.06  0.23  0.65  0.02  0.10  0.45  0.38  0.20  
24          0.81  0.13  0.06  0.23  0.65  0.02  0.10  0.45  0.38  0.20  
25          0.77  0.13  0.05  0.22  0.61  0.02  0.10  0.43  0.36  0.19  
26          0.77  0.13  0.05  0.22  0.61  0.02  0.10  0.43  0.36  0.19  
27          0.77  0.13  0.05  0.22  0.61  0.02  0.10  0.43  0.36  0.19  
28          0.77  0.13  0.05  0.22  0.61  0.02  0.10  0.43  0.36  0.19  
29          0.77  0.13  0.05  0.22  0.61  0.02  0.10  0.43  0.36  0.19  
30          0.77  0.13  0.05  0.22  0.61  0.02  0.10  0.43  0.36  0.19  
31          0.77  0.13  0.05  0.22  0.61  0.02  0.10  0.43  0.36  0.19  
32          0.77  0.13  0.05  0.22  0.61  0.02  0.10  0.43  0.36  0.19  
33          0.77  0.13  0.05  0.22  0.61  0.02  0.10  0.43  0.36  0.19  
34          0.81  0.13  0.06  0.23  0.65  0.02  0.10  0.45  0.38  0.20  
35          0.81  0.13  0.06  0.23  0.65  0.02  0.10  0.45  0.38  0.20  
36          0.81  0.13  0.06  0.23  0.65  0.02  0.10  0.45  0.38  0.20  
37          0.81  0.13  0.06  0.23  0.65  0.02  0.10  0.45  0.38  0.20  
38          0.81  0.13  0.06  0.23  0.65  0.02  0.10  0.45  0.38  0.20  
39          0.81  0.13  0.06  0.23  0.65  0.02  0.10  0.45  0.38  0.20  
40          0.81  0.13  0.06  0.23  0.65  0.02  0.10  0.45  0.38  0.20  
41          0.81  0.13  0.06  0.23  0.65  0.02  0.10  0.45  0.38  0.20  
42          0.81  0.13  0.06  0.23  0.65  0.02  0.10  0.45  0.38  0.20  
43          0.81  0.13  0.06  0.23  0.65  0.02  0.10  0.45  0.38  0.20  
44          0.81  0.13  0.06  0.23  0.65  0.02  0.10  0.45  0.38  0.20  
45          0.81  0.13  0.06  0.23  0.65  0.02  0.10  0.45  0.38  0.20  

[*,*,F3 ]:  K1    K2    K3    K4    K5    K6    K7    K8    K9    K10   :=
1           0.96  0.09  0.05  0.25  0.49  0.02  0.07  0.50  0.33  0.20  
2           0.96  0.09  0.05  0.25  0.49  0.02  0.07  0.50  0.33  0.20  
3           0.96  0.09  0.05  0.25  0.49  0.02  0.07  0.50  0.33  0.20  
4           0.96  0.09  0.05  0.25  0.49  0.02  0.07  0.50  0.33  0.20  
5           0.96  0.09  0.05  0.25  0.49  0.02  0.07  0.50  0.33  0.20  
6           0.96  0.09  0.05  0.25  0.49  0.02  0.07  0.50  0.33  0.20  
7           0.96  0.09  0.05  0.25  0.49  0.02  0.07  0.50  0.33  0.20  
8           0.96  0.09  0.05  0.25  0.49  0.02  0.07  0.50  0.33  0.20  
9           0.96  0.09  0.05  0.25  0.49  0.02  0.07  0.50  0.33  0.20  
10          0.96  0.09  0.05  0.25  0.49  0.02  0.07  0.50  0.33  0.20  
11          0.96  0.09  0.05  0.25  0.49  0.02  0.07  0.50  0.33  0.20  
12          0.96  0.09  0.05  0.25  0.49  0.02  0.07  0.50  0.33  0.20  
13          0.96  0.09  0.05  0.25  0.49  0.02  0.07  0.50  0.33  0.20  
14          0.96  0.09  0.05  0.25  0.49  0.02  0.07  0.50  0.33  0.20  
15          0.96  0.09  0.05  0.25  0.49  0.02  0.07  0.50  0.33  0.20  
16          0.96  0.09  0.05  0.25  0.49  0.02  0.07  0.50  0.33  0.20  
17          0.96  0.09  0.05  0.25  0.49  0.02  0.07  0.50  0.33  0.20  
18          0.96  0.09  0.05  0.25  0.49  0.02  0.07  0.50  0.33  0.20  
19          0.96  0.09  0.05  0.25  0.49  0.02  0.07  0.50  0.33  0.20  
20          0.96  0.09  0.05  0.25  0.49  0.02  0.07  0.50  0.33  0.20  
21          0.96  0.09  0.05  0.25  0.49  0.02  0.07  0.50  0.33  0.20  
22          0.96  0.09  0.05  0.25  0.49  0.02  0.07  0.50  0.33  0.20  
23          0.96  0.09  0.05  0.25  0.49  0.02  0.07  0.50  0.33  0.20  
24          0.96  0.09  0.05  0.25  0.49  0.02  0.07  0.50  0.33  0.20  
25          0.92  0.09  0.05  0.24  0.47  0.02  0.06  0.48  0.31  0.19  
26          0.92  0.09  0.05  0.24  0.47  0.02  0.06  0.48  0.31  0.19  
27          0.92  0.09  0.05  0.24  0.47  0.02  0.06  0.48  0.31  0.19  
28          0.92  0.09  0.05  0.24  0.47  0.02  0.06  0.48  0.31  0.19  
29          0.92  0.09  0.05  0.24  0.47  0.02  0.06  0.48  0.31  0.19  
30          0.92  0.09  0.05  0.24  0.47  0.02  0.06  0.48  0.31  0.19  
31          0.92  0.09  0.05  0.24  0.47  0.02  0.06  0.48  0.31  0.19  
32          0.92  0.09  0.05  0.24  0.47  0.02  0.06  0.48  0.31  0.19  
33          0.92  0.09  0.05  0.24  0.47  0.02  0.06  0.48  0.31  0.19  
34          0.96  0.09  0.05  0.25  0.49  0.02  0.07  0.50  0.33  0.20  
35          0.96  0.09  0.05  0.25  0.49  0.02  0.07  0.50  0.33  0.20  
36          0.96  0.09  0.05  0.25  0.49  0.02  0.07  0.50  0.33  0.20  
37          0.96  0.09  0.05  0.25  0.49  0.02  0.07  0.50  0.33  0.20  
38          0.96  0.09  0.05  0.25  0.49  0.02  0.07  0.50  0.33  0.20  
39          0.96  0.09  0.05  0.25  0.49  0.02  0.07  0.50  0.33  0.20  
40          0.96  0.09  0.05  0.25  0.49  0.02  0.07  0.50  0.33  0.20  
41          0.96  0.09  0.05  0.25  0.49  0.02  0.07  0.50  0.33  0.20  
42          0.96  0.09  0.05  0.25  0.49  0.02  0.07  0.50  0.33  0.20  
43          0.96  0.09  0.05  0.25  0.49  0.02  0.07  0.50  0.33  0.20  
44          0.96  0.09  0.05  0.25  0.49  0.02  0.07  0.50  0.33  0.20  
45          0.96  0.09  0.05  0.25  0.49  0.02  0.07  0.50  0.33  0.20  
; # downloads resource k can do at front f in time t if starting or ending flight

param W: 
	F1        F2        F3        :=
1	461.53    230.77    230.77    
2	1846.12   923.06    923.06    
3	1846.12   923.06    923.06    
4	1846.12   923.06    923.06    
5	1846.12   923.06    923.06    
6	1846.12   923.06    923.06    
7	1846.12   923.06    923.06    
8	1846.12   923.06    923.06    
9	1846.12   923.06    923.06    
10	1846.12   923.06    923.06    
11	1846.12   923.06    923.06    
12	1846.12   923.06    923.06    
13	1846.12   923.06    923.06    
14	1846.12   923.06    923.06    
15	1846.12   923.06    923.06    
16	1846.12   923.06    923.06    
17	1846.12   923.06    923.06    
18	1846.12   923.06    923.06    
19	820.50    410.25    410.25    
20	820.50    410.25    410.25    
21	820.50    410.25    410.25    
22	820.50    410.25    410.25    
23	820.50    410.25    410.25    
24	820.50    410.25    410.25    
25	820.50    410.25    410.25    
26	820.50    410.25    410.25    
27	820.50    410.25    410.25    
28	820.50    410.25    410.25    
29	820.50    410.25    410.25    
30	820.50    410.25    410.25    
31	820.50    410.25    410.25    
32	820.50    410.25    410.25    
33	820.50    410.25    410.25    
34	820.50    410.25    410.25    
35	820.50    410.25    410.25    
36	820.50    410.25    410.25    
37	820.50    410.25    410.25    
38	820.50    410.25    410.25    
39	820.50    410.25    410.25    
40	820.50    410.25    410.25    
41	820.50    410.25    410.25    
42	820.50    410.25    410.25    
43	820.50    410.25    410.25    
44	820.50    410.25    410.25    
45	205.12    102.56    102.56    
; # water needed at front f in time slot t

param M := 100000000; 

param a1:= 10000000;

param a2:= 100;

param a3:= 0.0001;
